39
raw_data/mm-rcpsp/MMLIB50/J508_4.mm
Time limit set to 60 seconds
Running CP solver
/home/omastto1/General-Optimization-Solver/src/solvers/mmrcpsp.py:42(stream:276:6): Warning: Cumulative expression 'pulse': height is zero, expression is zero everywhere.
                                                                                               VarCumulAtom_419 = pulse(task_0_mode_0, 0)
/home/omastto1/General-Optimization-Solver/src/solvers/mmrcpsp.py:42(stream:276:3911): Warning: Cumulative expression 'pulse': height is zero, expression is zero everywhere.
                                                                                                  VarCumulAtom_570 = pulse(task_51_mode_0, 0)
/home/omastto1/General-Optimization-Solver/src/solvers/mmrcpsp.py:42(stream:277:6): Warning: Cumulative expression 'pulse': height is zero, expression is zero everywhere.
                                                                                               VarCumulAtom_574 = pulse(task_0_mode_0, 0)
/home/omastto1/General-Optimization-Solver/src/solvers/mmrcpsp.py:42(stream:277:3910): Warning: Cumulative expression 'pulse': height is zero, expression is zero everywhere.
                                                                                                  VarCumulAtom_725 = pulse(task_51_mode_0, 0)
 ! --------------------------------------------------- CP Optimizer 20.1.0.0 --
 ! Minimization problem - 205 variables, 290 constraints
 ! TimeLimit            = 60
 ! Workers              = 14
 ! LogVerbosity         = Terse
 ! Initial process time : 0.02s (0.02s extraction + 0.00s propagation)
 !  . Log search space  : 523.7 (before), 523.7 (after)
 !  . Memory usage      : 1.3 MB (before), 1.3 MB (after)
 ! Using parallel search with 14 workers.
 ! ----------------------------------------------------------------------------
 !          Best Branches  Non-fixed    W       Branch decision
                        0        205                 -
 + New bound is 22
 ! Using iterative diving.
 ! Using temporal relaxation.
 *            56      109  0.88s        1      (gap is 60.71%)
 *            55      262  0.88s        1      (gap is 60.00%)
 *            54      370  0.88s        1      (gap is 59.26%)
 *            53      478  0.88s        1      (gap is 58.49%)
 *            52      586  0.88s        1      (gap is 57.69%)
 *            51      780  0.88s        1      (gap is 56.86%)
 *            50      888  0.88s        1      (gap is 56.00%)
 *            49     1163  0.88s        1      (gap is 55.10%)
 *            48     1213  0.88s        1      (gap is 54.17%)
 *            47     1478  0.88s        1      (gap is 53.19%)
 *            45     1562  0.88s        1      (gap is 51.11%)
              45     1852          2    1   F        -
 + New bound is 23 (gap is 48.89%)
 *            44     1960  1.60s        1      (gap is 47.73%)
 ! Using failure-directed search.
 *            43     3275  1.60s        1      (gap is 46.51%)
 *            42     4675  2.31s        2      (gap is 45.24%)
 *            41     5195  2.31s        2      (gap is 43.90%)
 *            40    10536  3.02s        2      (gap is 42.50%)
 *            39     9420  3.73s       10      (gap is 41.03%)
 *            38    14113  4.46s       11      (gap is 39.47%)
 ! Time = 4.46s, Average fail depth = 41, Memory usage = 22.9 MB
 ! Current bound is 23 (gap is 39.47%)
 !          Best Branches  Non-fixed    W       Branch decision
              38     7109        140    1   F    26 >= startOf(task_51)
 + New bound is 24 (gap is 36.84%)
 *            37    18418  5.13s        7      (gap is 35.14%)
 *            36    21476  5.85s        2      (gap is 33.33%)
              36     8025         95    1   F          presenceOf(task_25_mode_2)
 + New bound is 25 (gap is 30.56%)
 *            35     131k  41.13s       6      (gap is 28.57%)
 ! ----------------------------------------------------------------------------
 ! Search terminated by limit, 21 solutions found.
 ! Best objective         : 35 (gap is 28.57%)
 ! Best bound             : 25
 ! ----------------------------------------------------------------------------
 ! Number of branches     : 5127929
 ! Number of fails        : 884609
 ! Total memory usage     : 19.9 MB (19.8 MB CP Optimizer + 0.2 MB Concert)
 ! Time spent in solve    : 60.05s (60.03s engine + 0.02s extraction)
 ! Search speed (br. / s) : 85422.8
 ! ----------------------------------------------------------------------------
task_0: (start=0, end=0, size=0, length=0)
Task 0 is scheduled in mode 0 from 0 to 0
task_1: (start=0, end=6, size=6, length=6)
Task 1 is scheduled in mode 2 from 0 to 6
task_2: (start=0, end=9, size=9, length=9)
Task 2 is scheduled in mode 2 from 0 to 9
task_3: (start=0, end=10, size=10, length=10)
Task 3 is scheduled in mode 2 from 0 to 10
task_4: (start=10, end=12, size=2, length=2)
Task 4 is scheduled in mode 1 from 10 to 12
task_5: (start=3, end=6, size=3, length=3)
Task 5 is scheduled in mode 2 from 3 to 6
task_6: (start=0, end=5, size=5, length=5)
Task 6 is scheduled in mode 1 from 0 to 5
task_7: (start=10, end=14, size=4, length=4)
Task 7 is scheduled in mode 1 from 10 to 14
task_8: (start=0, end=3, size=3, length=3)
Task 8 is scheduled in mode 0 from 0 to 3
task_9: (start=3, end=8, size=5, length=5)
Task 9 is scheduled in mode 1 from 3 to 8
task_10: (start=0, end=10, size=10, length=10)
Task 10 is scheduled in mode 2 from 0 to 10
task_11: (start=8, end=10, size=2, length=2)
Task 11 is scheduled in mode 0 from 8 to 10
task_12: (start=0, end=10, size=10, length=10)
Task 12 is scheduled in mode 2 from 0 to 10
task_13: (start=0, end=10, size=10, length=10)
Task 13 is scheduled in mode 2 from 0 to 10
task_14: (start=10, end=20, size=10, length=10)
Task 14 is scheduled in mode 2 from 10 to 20
task_15: (start=9, end=12, size=3, length=3)
Task 15 is scheduled in mode 0 from 9 to 12
task_16: (start=12, end=14, size=2, length=2)
Task 16 is scheduled in mode 0 from 12 to 14
task_17: (start=0, end=9, size=9, length=9)
Task 17 is scheduled in mode 2 from 0 to 9
task_18: (start=18, end=21, size=3, length=3)
Task 18 is scheduled in mode 0 from 18 to 21
task_19: (start=6, end=12, size=6, length=6)
Task 19 is scheduled in mode 1 from 6 to 12
task_20: (start=14, end=23, size=9, length=9)
Task 20 is scheduled in mode 2 from 14 to 23
task_21: (start=5, end=10, size=5, length=5)
Task 21 is scheduled in mode 2 from 5 to 10
task_22: (start=14, end=20, size=6, length=6)
Task 22 is scheduled in mode 1 from 14 to 20
task_23: (start=12, end=21, size=9, length=9)
Task 23 is scheduled in mode 2 from 12 to 21
task_24: (start=18, end=22, size=4, length=4)
Task 24 is scheduled in mode 1 from 18 to 22
task_25: (start=21, end=23, size=2, length=2)
Task 25 is scheduled in mode 1 from 21 to 23
task_26: (start=21, end=23, size=2, length=2)
Task 26 is scheduled in mode 0 from 21 to 23
task_27: (start=14, end=22, size=8, length=8)
Task 27 is scheduled in mode 1 from 14 to 22
task_28: (start=10, end=14, size=4, length=4)
Task 28 is scheduled in mode 1 from 10 to 14
task_29: (start=21, end=26, size=5, length=5)
Task 29 is scheduled in mode 1 from 21 to 26
task_30: (start=14, end=17, size=3, length=3)
Task 30 is scheduled in mode 1 from 14 to 17
task_31: (start=18, end=24, size=6, length=6)
Task 31 is scheduled in mode 2 from 18 to 24
task_32: (start=17, end=18, size=1, length=1)
Task 32 is scheduled in mode 0 from 17 to 18
task_33: (start=33, end=35, size=2, length=2)
Task 33 is scheduled in mode 0 from 33 to 35
task_34: (start=26, end=27, size=1, length=1)
Task 34 is scheduled in mode 0 from 26 to 27
task_35: (start=24, end=33, size=9, length=9)
Task 35 is scheduled in mode 2 from 24 to 33
task_36: (start=26, end=35, size=9, length=9)
Task 36 is scheduled in mode 2 from 26 to 35
task_37: (start=23, end=31, size=8, length=8)
Task 37 is scheduled in mode 2 from 23 to 31
task_38: (start=23, end=33, size=10, length=10)
Task 38 is scheduled in mode 2 from 23 to 33
task_39: (start=33, end=35, size=2, length=2)
Task 39 is scheduled in mode 1 from 33 to 35
task_40: (start=27, end=35, size=8, length=8)
Task 40 is scheduled in mode 2 from 27 to 35
task_41: (start=20, end=21, size=1, length=1)
Task 41 is scheduled in mode 0 from 20 to 21
task_42: (start=22, end=31, size=9, length=9)
Task 42 is scheduled in mode 2 from 22 to 31
task_43: (start=21, end=27, size=6, length=6)
Task 43 is scheduled in mode 2 from 21 to 27
task_44: (start=31, end=33, size=2, length=2)
Task 44 is scheduled in mode 0 from 31 to 33
task_45: (start=22, end=30, size=8, length=8)
Task 45 is scheduled in mode 2 from 22 to 30
task_46: (start=23, end=32, size=9, length=9)
Task 46 is scheduled in mode 2 from 23 to 32
task_47: (start=30, end=35, size=5, length=5)
Task 47 is scheduled in mode 1 from 30 to 35
task_48: (start=20, end=30, size=10, length=10)
Task 48 is scheduled in mode 2 from 20 to 30
task_49: (start=12, end=14, size=2, length=2)
Task 49 is scheduled in mode 1 from 12 to 14
task_50: (start=14, end=18, size=4, length=4)
Task 50 is scheduled in mode 1 from 14 to 18
task_51: (start=35, end=35, size=0, length=0)
Task 51 is scheduled in mode 0 from 35 to 35
Feasible solution found
Objective value: 35
Solution is 40.0 % worse than the lower bound.
